100
100
3000 3000 3000 3000 3000 3000 3000 3000 3000 3000 3000 3000 3000 3000 3000 3000 3000 3000 3000 3000 3000 3000 3000 3000 3000 3000 3000 3000 3000 3000 3000 3000 3000 3000 3000 3000 3000 3000 3000 3000 3000 3000 3000 3000 3000 3000 3000 3000 3000 3000 3000 3000 3000 3000 3000 3000 3000 3000 3000 3000 3000 3000 3000 3000 3000 3000 3000 3000 3000 3000 3000 3000 3000 3000 3000 3000 3000 3000 3000 3000 3000 3000 3000 3000 3000 3000 3000 3000 3000 3000 3000 3000 3000 3000 3000 3000 3000 3000 3000 3000
0 9 2
0 10 3
0 31 1
0 39 2
0 43 3
0 72 0
0 77 1
0 80 3
0 92 2
0 93 4
1 6 2
1 11 0
1 22 1
1 39 0
1 45 1
1 47 2
1 54 0
1 56 0
1 63 4
1 66 1
2 5 4
2 18 0
2 24 1
2 34 0
2 41 1
2 46 0
2 51 1
2 56 1
2 60 3
2 62 1
3 3 0
3 13 1
3 16 4
3 22 3
3 28 4
3 33 2
3 37 3
3 49 0
3 64 4
3 71 1
4 1 2
4 6 4
4 15 0
4 23 1
4 25 0
4 33 4
4 39 1
4 60 4
4 73 0
4 80 0
5 3 0
5 8 0
5 43 0
5 45 1
5 48 0
5 91 3
5 92 1
5 93 0
5 97 2
5 98 0
6 1 0
6 14 4
6 18 4
6 41 0
6 42 4
6 44 0
6 80 3
6 84 4
6 97 0
6 99 2
7 7 3
7 9 4
7 24 1
7 30 2
7 38 2
7 41 2
7 63 0
7 66 1
7 70 2
7 72 0
8 2 0
8 5 1
8 14 3
8 26 4
8 42 0
8 43 4
8 47 3
8 52 1
8 58 0
8 75 0
9 48 1
9 58 4
9 82 2
9 83 1
9 89 3
9 94 0
9 96 3
9 97 3
9 98 4
9 99 0
10 4 3
10 16 4
10 17 2
10 20 0
10 30 4
10 38 0
10 39 3
10 49 3
10 50 0
10 58 1
11 0 0
11 12 3
11 42 3
11 49 1
11 64 1
11 79 2
11 84 2
11 90 3
11 91 1
11 93 2
12 10 3
12 16 0
12 18 0
12 30 3
12 41 2
12 45 1
12 53 4
12 63 4
12 71 4
12 74 4
13 0 2
13 6 0
13 17 2
13 18 3
13 31 0
13 37 3
13 44 3
13 46 2
13 55 4
13 64 0
14 9 1
14 30 4
14 33 0
14 48 4
14 51 3
14 60 3
14 70 2
14 87 4
14 96 0
14 99 3
15 13 2
15 15 1
15 16 4
15 21 1
15 44 1
15 45 4
15 46 2
15 47 2
15 54 1
15 58 3
16 4 0
16 6 1
16 18 2
16 23 0
16 25 4
16 26 2
16 42 0
16 52 2
16 55 3
16 88 2
17 1 2
17 11 1
17 22 2
17 25 3
17 42 1
17 43 1
17 44 0
17 58 2
17 81 2
17 83 4
18 8 0
18 25 1
18 35 4
18 54 2
18 64 0
18 71 3
18 78 3
18 89 3
18 92 1
18 98 4
19 5 4
19 12 4
19 24 4
19 38 0
19 45 4
19 57 3
19 70 4
19 73 4
19 85 3
19 88 4
20 2 0
20 31 1
20 38 4
20 67 4
20 72 3
20 83 1
20 88 0
20 96 2
20 97 3
20 98 0
21 31 1
21 34 0
21 61 4
21 79 2
21 80 0
21 90 3
21 92 0
21 95 1
21 97 4
21 98 3
22 2 3
22 5 4
22 10 3
22 24 3
22 26 0
22 27 0
22 29 1
22 32 2
22 37 3
22 38 0
23 3 2
23 19 1
23 20 4
23 22 0
23 55 0
23 59 3
23 75 2
23 85 2
23 86 1
23 94 0
24 1 0
24 3 3
24 8 0
24 18 4
24 21 1
24 50 4
24 62 2
24 76 0
24 78 0
24 82 4
25 20 4
25 50 4
25 84 4
25 93 1
25 94 0
25 95 4
25 96 3
25 97 0
25 98 1
25 99 3
26 6 0
26 29 4
26 30 4
26 40 0
26 55 1
26 57 2
26 64 4
26 71 2
26 89 2
26 90 4
27 19 0
27 48 3
27 51 3
27 54 2
27 65 4
27 87 0
27 88 1
27 92 1
27 94 4
27 95 4
28 7 3
28 12 0
28 29 0
28 35 4
28 44 0
28 62 1
28 67 1
28 71 3
28 78 2
28 79 2
29 2 0
29 9 1
29 12 2
29 36 2
29 55 3
29 64 2
29 74 3
29 79 2
29 83 0
29 85 2
30 0 3
30 14 1
30 18 3
30 19 2
30 20 1
30 24 3
30 32 3
30 34 1
30 36 4
30 40 1
31 10 0
31 29 1
31 35 4
31 52 2
31 54 2
31 60 3
31 71 1
31 80 4
31 84 1
31 86 4
32 5 4
32 37 3
32 83 0
32 85 0
32 89 1
32 90 0
32 93 2
32 95 2
32 96 1
32 99 0
33 4 1
33 17 3
33 27 4
33 34 2
33 53 0
33 61 2
33 79 3
33 92 0
33 96 0
33 99 4
34 15 2
34 20 3
34 36 1
34 54 2
34 55 0
34 67 2
34 78 4
34 81 4
34 94 3
34 99 4
35 30 2
35 32 0
35 43 2
35 45 4
35 53 4
35 72 1
35 73 0
35 76 2
35 79 4
35 96 1
36 27 1
36 59 3
36 66 0
36 77 1
36 82 4
36 86 4
36 94 4
36 96 4
36 98 3
36 99 1
37 0 4
37 17 1
37 23 2
37 26 2
37 45 2
37 46 3
37 50 2
37 87 3
37 91 3
37 95 3
38 25 3
38 32 0
38 37 2
38 43 4
38 47 3
38 51 4
38 55 1
38 62 3
38 67 1
38 79 0
39 0 1
39 4 0
39 7 2
39 19 1
39 27 4
39 36 0
39 56 2
39 60 2
39 61 3
39 76 1
40 0 3
40 1 1
40 2 4
40 11 0
40 31 3
40 36 0
40 60 0
40 62 2
40 69 4
40 75 2
41 20 2
41 22 3
41 24 4
41 42 2
41 47 2
41 63 2
41 66 2
41 70 0
41 83 1
41 86 4
42 10 0
42 18 0
42 26 2
42 30 4
42 40 4
42 70 3
42 72 0
42 81 2
42 83 0
42 84 4
43 9 3
43 19 2
43 34 4
43 35 2
43 36 3
43 51 0
43 54 4
43 62 2
43 63 0
43 69 4
44 0 0
44 23 1
44 29 3
44 46 3
44 48 3
44 57 1
44 62 2
44 68 3
44 82 2
44 85 3
45 7 4
45 14 2
45 39 2
45 41 4
45 55 4
45 56 1
45 59 0
45 73 0
45 91 3
45 97 0
46 2 0
46 19 1
46 27 3
46 28 4
46 50 3
46 52 0
46 64 3
46 69 2
46 70 3
46 86 4
47 7 2
47 8 3
47 10 4
47 13 1
47 16 4
47 21 3
47 24 0
47 32 3
47 34 1
47 36 0
48 7 2
48 14 4
48 21 2
48 25 1
48 33 4
48 37 0
48 54 0
48 57 2
48 71 0
48 76 0
49 2 3
49 8 1
49 35 4
49 42 4
49 44 1
49 50 3
49 51 4
49 77 2
49 89 3
49 95 0
50 2 2
50 5 1
50 13 1
50 23 0
50 31 2
50 37 0
50 40 4
50 41 3
50 53 2
50 66 2
51 19 2
51 37 3
51 68 4
51 69 4
51 81 1
51 82 4
51 90 2
51 97 4
51 98 0
51 99 1
52 5 4
52 8 4
52 10 3
52 12 0
52 19 0
52 33 0
52 36 3
52 43 1
52 44 2
52 46 2
53 4 3
53 10 3
53 15 1
53 16 3
53 21 2
53 27 1
53 33 2
53 34 3
53 40 2
53 46 3
54 4 2
54 15 2
54 35 3
54 45 0
54 48 3
54 68 1
54 69 2
54 81 0
54 82 2
54 86 4
55 17 3
55 29 2
55 33 0
55 48 0
55 61 3
55 63 2
55 65 2
55 80 2
55 81 1
55 89 3
56 22 4
56 28 3
56 40 2
56 50 3
56 51 0
56 53 4
56 73 0
56 78 2
56 80 0
56 89 4
57 6 1
57 28 4
57 42 0
57 43 0
57 44 1
57 59 3
57 70 4
57 87 3
57 88 2
57 93 2
58 12 3
58 17 4
58 34 0
58 55 0
58 61 4
58 65 4
58 71 4
58 78 1
58 79 0
58 85 0
59 1 1
59 8 2
59 16 2
59 53 3
59 55 4
59 60 3
59 69 0
59 74 0
59 83 0
59 84 2
60 0 4
60 7 0
60 13 2
60 22 1
60 45 0
60 49 0
60 76 0
60 81 3
60 93 4
60 99 4
61 16 0
61 17 1
61 20 4
61 38 3
61 40 1
61 53 0
61 56 4
61 57 4
61 67 3
61 68 4
62 28 2
62 30 2
62 39 4
62 42 0
62 46 0
62 65 1
62 75 1
62 87 0
62 94 3
62 96 3
63 4 0
63 5 0
63 13 1
63 14 3
63 17 1
63 22 0
63 56 0
63 83 0
63 85 4
63 91 2
64 13 3
64 20 3
64 51 0
64 65 1
64 73 2
64 74 1
64 77 1
64 82 3
64 83 0
64 94 2
65 11 3
65 27 4
65 52 4
65 70 4
65 73 1
65 88 1
65 92 1
65 93 4
65 95 3
65 96 0
66 9 1
66 11 0
66 12 3
66 31 1
66 43 4
66 49 4
66 56 2
66 57 1
66 63 3
66 77 3
67 41 4
67 58 3
67 63 4
67 65 0
67 72 0
67 77 3
67 87 1
67 90 2
67 94 1
67 95 0
68 1 3
68 7 4
68 9 0
68 19 3
68 23 0
68 27 1
68 31 2
68 32 3
68 74 0
68 93 4
69 6 3
69 9 3
69 27 0
69 34 0
69 36 2
69 52 0
69 66 0
69 72 3
69 75 0
69 82 4
70 1 3
70 16 4
70 41 0
70 46 0
70 47 3
70 56 4
70 63 0
70 82 4
70 89 0
70 90 3
71 9 1
71 11 3
71 14 3
71 41 1
71 56 2
71 59 0
71 64 4
71 68 1
71 75 4
71 81 1
72 21 0
72 51 0
72 58 2
72 69 2
72 75 3
72 77 1
72 78 1
72 81 4
72 85 3
72 92 4
73 3 3
73 5 0
73 10 0
73 13 3
73 26 4
73 42 4
73 57 1
73 72 0
73 76 2
73 86 3
74 2 0
74 11 4
74 13 4
74 32 2
74 39 1
74 49 2
74 51 1
74 58 1
74 59 3
74 61 0
75 18 0
75 24 2
75 32 3
75 41 4
75 53 0
75 58 4
75 71 4
75 77 3
75 84 4
75 87 2
76 4 0
76 7 0
76 11 1
76 15 4
76 18 3
76 25 1
76 39 0
76 61 0
76 72 0
76 74 3
77 17 4
77 26 4
77 28 2
77 52 0
77 59 4
77 68 0
77 74 0
77 75 2
77 78 2
77 88 2
78 4 0
78 6 1
78 8 4
78 23 2
78 24 2
78 32 0
78 35 3
78 38 3
78 45 4
78 60 4
79 0 3
79 2 1
79 3 3
79 35 3
79 39 3
79 64 4
79 73 1
79 80 4
79 86 2
79 95 1
80 10 4
80 21 1
80 38 1
80 49 1
80 56 2
80 65 1
80 66 0
80 67 1
80 88 1
80 89 3
81 21 3
81 26 0
81 28 2
81 29 0
81 33 3
81 47 4
81 62 1
81 68 0
81 71 2
81 73 3
82 8 0
82 12 3
82 15 2
82 46 4
82 69 1
82 74 2
82 82 4
82 87 4
82 90 3
82 91 3
83 3 0
83 17 3
83 29 0
83 35 0
83 47 2
83 59 2
83 61 4
83 63 4
83 70 2
83 75 1
84 14 0
84 16 0
84 27 0
84 44 0
84 47 1
84 53 0
84 54 1
84 67 1
84 79 0
84 80 4
85 11 3
85 23 1
85 25 4
85 26 0
85 29 3
85 31 4
85 33 1
85 40 3
85 57 0
85 62 3
86 1 1
86 8 0
86 69 0
86 74 4
86 81 1
86 84 1
86 85 3
86 86 2
86 87 2
86 88 4
87 15 4
87 28 2
87 32 4
87 50 4
87 58 0
87 65 3
87 76 3
87 84 3
87 94 1
87 95 0
88 22 0
88 26 1
88 28 3
88 33 0
88 73 0
88 74 3
88 77 0
88 91 3
88 92 0
88 98 3
89 0 4
89 25 1
89 59 4
89 61 2
89 68 1
89 77 2
89 78 4
89 79 3
89 87 1
89 92 3
90 9 0
90 25 2
90 37 1
90 49 4
90 61 4
90 76 1
90 84 1
90 91 4
90 97 4
90 98 4
91 6 0
91 14 2
91 28 0
91 30 2
91 31 1
91 34 2
91 38 2
91 40 3
91 43 0
91 78 1
92 20 1
92 22 3
92 23 3
92 37 1
92 39 3
92 47 0
92 54 0
92 64 0
92 68 3
92 76 0
93 4 3
93 14 0
93 19 3
93 57 4
93 67 0
93 75 0
93 76 0
93 90 1
93 91 1
93 97 4
94 3 3
94 11 4
94 62 4
94 65 2
94 69 1
94 85 0
94 86 1
94 88 4
94 91 3
94 93 1
95 7 3
95 12 0
95 13 1
95 36 0
95 48 2
95 49 0
95 50 0
95 52 2
95 60 4
95 80 3
96 3 0
96 6 4
96 29 0
96 30 2
96 44 2
96 48 4
96 52 4
96 53 1
96 60 2
96 66 1
97 1 3
97 15 3
97 21 2
97 35 1
97 38 2
97 48 4
97 59 2
97 65 0
97 66 2
97 67 4
98 5 3
98 20 3
98 21 0
98 40 4
98 57 0
98 66 3
98 68 1
98 72 4
98 89 2
98 90 0
99 3 3
99 12 1
99 15 2
99 23 2
99 24 4
99 49 1
99 50 3
99 52 3
99 67 4
99 70 0
